Academic license - for non-commercial use only
Gurobi Optimizer version 9.0.3 build v9.0.3rc0 (mac64)
Optimize a model with 415466 rows, 400800 columns and 2301950 nonzeros
Model fingerprint: 0x36dcdc0c
Variable types: 0 continuous, 400800 integer (400800 binary)
Coefficient statistics:
  Matrix range     [1e+00, 1e+00]
  Objective range  [1e+01, 1e+05]
  Bounds range     [1e+00, 1e+00]
  RHS range        [1e+00, 1e+03]
Presolve removed 6050 rows and 50 columns (presolve time = 6s) ...
Presolve added 0 rows and 5950 columns
Presolve removed 50 rows and 0 columns
Presolve time: 6.97s
Presolved: 415416 rows, 406750 columns, 1719850 nonzeros
Variable types: 0 continuous, 406750 integer (406750 binary)
Found heuristic solution: objective 1374542.0000

Concurrent LP optimizer: dual simplex and barrier
Showing barrier log only...

Root barrier log...

Ordering time: 0.12s

Barrier statistics:
 Dense cols : 400
 AA' NZ     : 1.332e+06
 Factor NZ  : 5.533e+06 (roughly 400 MBytes of memory)
 Factor Ops : 1.335e+09 (less than 1 second per iteration)
 Threads    : 3

                  Objective                Residual
Iter       Primal          Dual         Primal    Dual     Compl     Time
   0   5.84347433e+08 -7.63498986e+08  6.73e+02 2.87e+01  3.07e+04    17s
   1   1.51282984e+07 -8.89983485e+08  2.88e+01 1.04e+04  1.71e+03    17s
   2   2.25316329e+06 -7.87953232e+08  1.67e+00 8.26e+03  7.10e+02    18s
   3   1.94717912e+06 -3.74072698e+08  1.03e+00 3.72e+03  3.31e+02    18s
   4   1.57297513e+06 -2.28610310e+08  1.97e-01 2.39e+03  1.95e+02    19s
   5   1.49398369e+06 -6.10540065e+07  9.73e-03 6.29e+02  5.23e+01    19s
   6   1.48765593e+06 -4.94778215e+06  7.18e-03 8.28e+01  5.38e+00    20s
   7   1.44594551e+06  4.19037294e+05  4.77e-03 1.88e+01  8.48e-01    20s
   8   1.43560819e+06  7.02355782e+05  4.40e-03 1.18e+01  6.04e-01    20s
   9   1.41299175e+06  8.34286566e+05  3.72e-03 8.20e+00  4.76e-01    21s
  10   1.39078952e+06  9.59417951e+05  3.13e-03 5.05e+00  3.55e-01    21s
  11   1.35508115e+06  1.09051930e+06  2.49e-03 2.58e+00  2.17e-01    22s
  12   1.33971992e+06  1.11863888e+06  2.27e-03 4.44e+00  1.81e-01    24s
  13   1.33370900e+06  1.12950215e+06  2.18e-03 3.87e+00  1.67e-01    24s
  14   1.29572874e+06  1.14258584e+06  1.60e-03 3.03e+00  1.26e-01    25s
  15   1.27648678e+06  1.15764023e+06  1.30e-03 2.16e+00  9.74e-02    26s
  16   1.26085885e+06  1.16700274e+06  1.06e-03 1.58e+00  7.69e-02    27s
  17   1.25457733e+06  1.17239611e+06  9.63e-04 1.24e+00  6.73e-02    27s
  18   1.25038474e+06  1.17641039e+06  9.00e-04 1.00e+00  6.05e-02    28s
  19   1.23323253e+06  1.18096338e+06  6.40e-04 7.47e-01  4.28e-02    29s
  20   1.23051392e+06  1.18341235e+06  5.97e-04 6.09e-01  3.85e-02    29s
  21   1.22488320e+06  1.18540030e+06  5.06e-04 4.92e-01  3.23e-02    30s
  22   1.21746363e+06  1.18629975e+06  3.89e-04 4.36e-01  2.55e-02    31s
  23   1.21369544e+06  1.18784282e+06  3.30e-04 3.53e-01  2.11e-02    31s
  24   1.21148446e+06  1.18866882e+06  2.96e-04 3.07e-01  1.87e-02    32s
  25   1.21073888e+06  1.18890636e+06  2.83e-04 2.94e-01  1.79e-02    32s
  26   1.20935875e+06  1.18976649e+06  2.61e-04 2.44e-01  1.60e-02    33s
  27   1.20827267e+06  1.19024891e+06  2.44e-04 2.15e-01  1.47e-02    34s
  28   1.20747376e+06  1.19061978e+06  2.30e-04 1.92e-01  1.38e-02    34s
  29   1.20497463e+06  1.19101389e+06  1.91e-04 1.70e-01  1.14e-02    35s
  30   1.20359098e+06  1.19134995e+06  1.67e-04 1.49e-01  1.00e-02    35s
  31   1.20268867e+06  1.19188535e+06  1.52e-04 1.17e-01  8.83e-03    36s
  32   1.20186406e+06  1.19205732e+06  1.39e-04 1.07e-01  8.01e-03    37s
  33   1.20079710e+06  1.19229008e+06  1.20e-04 9.21e-02  6.95e-03    37s
  34   1.19939946e+06  1.19244319e+06  9.71e-05 8.26e-02  5.69e-03    38s
  35   1.19880153e+06  1.19251499e+06  8.71e-05 7.78e-02  5.14e-03    38s
  36   1.19843536e+06  1.19264139e+06  8.11e-05 7.05e-02  4.74e-03    39s
  37   1.19778091e+06  1.19274759e+06  6.97e-05 6.40e-02  4.12e-03    40s
  38   1.19729624e+06  1.19282919e+06  6.12e-05 5.92e-02  3.65e-03    40s
  39   1.19702157e+06  1.19295282e+06  5.66e-05 5.24e-02  3.33e-03    41s
  40   1.19690192e+06  1.19307482e+06  5.44e-05 4.52e-02  3.13e-03    41s
  41   1.19663760e+06  1.19312400e+06  4.98e-05 4.19e-02  2.87e-03    42s
  42   1.19628833e+06  1.19317533e+06  4.38e-05 3.85e-02  2.54e-03    43s
  43   1.19610032e+06  1.19323701e+06  4.05e-05 3.43e-02  2.34e-03    43s
  44   1.19579494e+06  1.19328979e+06  3.53e-05 3.08e-02  2.05e-03    44s
  45   1.19563189e+06  1.19336267e+06  3.25e-05 2.65e-02  1.85e-03    44s
  46   1.19554146e+06  1.19340384e+06  3.09e-05 2.40e-02  1.75e-03    45s
  47   1.19547761e+06  1.19341698e+06  2.97e-05 2.33e-02  1.68e-03    46s
  48   1.19532608e+06  1.19345869e+06  2.71e-05 2.07e-02  1.53e-03    46s
  49   1.19518599e+06  1.19348597e+06  2.46e-05 1.92e-02  1.39e-03    47s
  50   1.19510843e+06  1.19349781e+06  2.33e-05 1.85e-02  1.32e-03    47s
  51   1.19504597e+06  1.19351330e+06  2.22e-05 1.76e-02  1.25e-03    48s
  52   1.19498617e+06  1.19356831e+06  2.11e-05 1.41e-02  1.16e-03    48s
  53   1.19494285e+06  1.19358633e+06  2.03e-05 1.28e-02  1.11e-03    49s
  54   1.19485985e+06  1.19361046e+06  1.88e-05 1.14e-02  1.02e-03    49s
  55   1.19479404e+06  1.19362607e+06  1.76e-05 1.04e-02  9.54e-04    50s
  56   1.19461432e+06  1.19363810e+06  1.45e-05 9.68e-03  7.97e-04    51s
  57   1.19447087e+06  1.19365515e+06  1.21e-05 8.61e-03  6.66e-04    51s
  58   1.19437985e+06  1.19368233e+06  1.05e-05 7.04e-03  5.70e-04    52s
  59   1.19424734e+06  1.19371484e+06  8.18e-06 4.89e-03  4.35e-04    52s
  60   1.19421493e+06  1.19372333e+06  7.61e-06 4.43e-03  4.01e-04    53s
  61   1.19416840e+06  1.19373118e+06  6.77e-06 3.97e-03  3.57e-04    53s
  62   1.19415275e+06  1.19373947e+06  6.50e-06 3.48e-03  3.37e-04    54s
  63   1.19412551e+06  1.19374339e+06  6.03e-06 3.24e-03  3.12e-04    54s
  64   1.19410283e+06  1.19374513e+06  5.64e-06 3.10e-03  2.92e-04    55s
  65   1.19407289e+06  1.19375780e+06  5.08e-06 2.32e-03  2.57e-04    56s
  66   1.19402935e+06  1.19377605e+06  4.30e-06 1.06e-03  2.07e-04    56s
  67   1.19399490e+06  1.19377819e+06  3.65e-06 9.45e-04  1.77e-04    57s
  68   1.19391759e+06  1.19378154e+06  2.26e-06 7.48e-04  1.11e-04    57s
  69   1.19386337e+06  1.19378520e+06  1.23e-06 5.63e-04  6.38e-05    58s
  70   1.19382867e+06  1.19379077e+06  6.06e-07 2.34e-04  3.09e-05    58s
  71   1.19381825e+06  1.19379352e+06  4.16e-07 4.90e-05  2.02e-05    59s
  72   1.19381662e+06  1.19379429e+06  3.87e-07 2.65e-05  1.82e-05    59s
  73   1.19381438e+06  1.19379442e+06  3.46e-07 2.40e-05  1.63e-05    60s
  74   1.19381336e+06  1.19379455e+06  3.25e-07 2.24e-05  1.53e-05    60s
  75   1.19381171e+06  1.19379468e+06  2.94e-07 2.06e-05  1.39e-05    60s
  76   1.19380973e+06  1.19379476e+06  2.56e-07 1.91e-05  1.22e-05    61s
  77   1.19380771e+06  1.19379489e+06  2.19e-07 1.73e-05  1.04e-05    61s
  78   1.19380718e+06  1.19379489e+06  2.10e-07 1.67e-05  1.00e-05    62s
  79   1.19380490e+06  1.19379498e+06  1.72e-07 1.08e-05  8.08e-06    63s
  80   1.19380418e+06  1.19379532e+06  1.59e-07 2.90e-06  7.22e-06    63s
  81   1.19380112e+06  1.19379515e+06  1.02e-07 9.22e-07  4.86e-06    64s
  82   1.19379932e+06  1.19379532e+06  6.84e-08 8.17e-08  3.26e-06    64s
  83   1.19379743e+06  1.19379543e+06  3.41e-08 5.69e-07  1.63e-06    65s
  84   1.19379565e+06  1.19379546e+06  2.05e-09 5.78e-08  1.63e-07    65s
  85   1.19379550e+06  1.19379550e+06  3.72e-11 4.45e-08  7.13e-10    65s

Barrier solved model in 85 iterations and 65.39 seconds
Optimal objective 1.19379550e+06


Root crossover log...

  296101 DPushes remaining with DInf 7.7497164e-02                66s
       0 DPushes remaining with DInf 0.0000000e+00                67s

     823 PPushes remaining with PInf 2.4281581e-06                67s
       0 PPushes remaining with PInf 0.0000000e+00                67s

  Push phase complete: Pinf 0.0000000e+00, Dinf 0.0000000e+00     67s


Root simplex log...

Iteration    Objective       Primal Inf.    Dual Inf.      Time
   31080    1.1937955e+06   0.000000e+00   0.000000e+00     67s

Solved with barrier

Root relaxation: objective 1.193796e+06, 31080 iterations, 52.00 seconds
Total elapsed time = 70.14s

    Nodes    |    Current Node    |     Objective Bounds      |     Work
 Expl Unexpl |  Obj  Depth IntInf | Incumbent    BestBd   Gap | It/Node Time

     0     0 1193795.50    0 3410 1374542.00 1193795.50  13.1%     -   71s
H    0     0                    1198100.0000 1193795.50  0.36%     -   74s
H    0     0                    1193961.0000 1193795.50  0.01%     -   95s
     0     0 1193811.69    0 5831 1193961.00 1193811.69  0.01%     -  114s
     0     0 1193811.69    0 2847 1193961.00 1193811.69  0.01%     -  125s

Cutting planes:
  Gomory: 2
  MIR: 1
  Zero half: 130

Explored 1 nodes (48677 simplex iterations) in 127.56 seconds
Thread count was 8 (of 8 available processors)

Solution count 4: 1.19396e+06 1.19396e+06 1.1981e+06 1.37454e+06 

Optimal solution found (tolerance 1.00e-04)
Best objective 1.193961000000e+06, best bound 1.193945500000e+06, gap 0.0013%

User-callback calls 15032, time in user-callback 0.17 sec
Solution written to /Users/mdeboute/Desktop/Etudes/Master/M2/S9/GOPP/Projet/multi-period-flp/solution/instMulti_I50_J1000_T8_0_result.txt
